************************************************************************
file with basedata            : mm4_.bas
initial value random generator: 777663122
************************************************************************
projects                      :  1
jobs (incl. supersource/sink ):  12
horizon                       :  74
RESOURCES
  - renewable                 :  2   R
  - nonrenewable              :  2   N
  - doubly constrained        :  0   D
************************************************************************
PROJECT INFORMATION:
pronr.  #jobs rel.date duedate tardcost  MPM-Time
    1     10      0       20        8       20
************************************************************************
PRECEDENCE RELATIONS:
jobnr.    #modes  #successors   successors
   0        1          3           1   2   3
   1        3          3           4   5   8
   2        3          2           6   9
   3        3          1           8
   4        3          2           9  10
   5        3          2           6   9
   6        3          1           7
   7        3          1          10
   8        3          1          11
   9        3          1          11
  10        3          1          11
  11        1          0        
************************************************************************
REQUESTS/DURATIONS:
jobnr. mode duration  R 1  R 2  R 3  R 4  E(W 1)
------------------------------------------------------------------------
  0      1     0       0    0    0    0     0
  1      1     2       5    0    9    0    28
  2      1     4       0   10    0    6    64
  3      1     1       3    0    7    0    10
  4      1     2       4    0    7    0    22
  5      1     3       6    0    7    0    39
  6      1     6       6    0    5    0    66
  7      1     2       0    9    6    0    30
  8      1     1       5    0    3    0     8
  9      1     1       0    5    4    0     9
 10      1     7       0    9    0    9    126
 11      1     0       0    0    0    0     0
************************************************************************
RESOURCEAVAILABILITIES:
  R 1
   128
************************************************************************
RESOURCE LIMITS:
jobnr.  l(R 1)  u(R 1)
------------------------------------------------------------------------
  0        0       0
  1        8      14
  2        8      16
  3        6      10
  4        6      11
  5        7      13
  6        6      11
  7        8      15
  8        5       8
  9        5       9
 10       10      18
 11        0       0
************************************************************************
SCENARIOS:
------------------------------------------------------------------------
RESOURCE k = 1
s = 1: (0, 40, 58, 12, 19, 39, 82, 29, 12, 6, 93, 0)
s = 2: (0, 25, 58, 13, 22, 26, 50, 24, 8, 8, 121, 0)
s = 3: (0, 20, 51, 8, 18, 34, 72, 22, 9, 13, 124, 0)
s = 4: (0, 32, 41, 9, 32, 23, 81, 38, 11, 10, 127, 0)
s = 5: (0, 39, 88, 14, 18, 51, 73, 39, 10, 12, 72, 0)
s = 6: (0, 18, 37, 11, 17, 51, 58, 32, 9, 13, 101, 0)
s = 7: (0, 37, 86, 9, 16, 28, 46, 19, 14, 10, 122, 0)
s = 8: (0, 36, 58, 11, 25, 26, 48, 27, 8, 14, 78, 0)
s = 9: (0, 18, 64, 8, 38, 29, 70, 30, 8, 10, 82, 0)
s = 10: (0, 27, 41, 7, 33, 48, 54, 47, 7, 8, 95, 0)
s = 11: (0, 26, 41, 11, 32, 31, 47, 44, 11, 13, 109, 0)
s = 12: (0, 22, 71, 14, 32, 43, 43, 42, 5, 5, 110, 0)
s = 13: (0, 16, 58, 8, 23, 39, 99, 19, 13, 13, 137, 0)
s = 14: (0, 34, 98, 9, 34, 47, 100, 17, 9, 11, 195, 0)
s = 15: (0, 23, 35, 7, 30, 36, 80, 21, 10, 10, 117, 0)
s = 16: (0, 23, 47, 9, 18, 31, 66, 20, 8, 12, 163, 0)
s = 17: (0, 36, 48, 7, 26, 26, 42, 21, 7, 6, 199, 0)
s = 18: (0, 34, 44, 10, 19, 38, 79, 27, 5, 7, 137, 0)
s = 19: (0, 35, 87, 8, 25, 52, 91, 18, 6, 6, 116, 0)
s = 20: (0, 25, 65, 11, 22, 32, 61, 43, 10, 11, 103, 0)
s = 21: (0, 25, 102, 11, 15, 45, 102, 18, 7, 9, 108, 0)
s = 22: (0, 30, 88, 11, 23, 48, 42, 45, 12, 10, 119, 0)
s = 23: (0, 19, 58, 10, 19, 55, 88, 24, 6, 10, 92, 0)
s = 24: (0, 18, 101, 12, 21, 24, 37, 25, 8, 13, 95, 0)
s = 25: (0, 32, 63, 8, 27, 40, 49, 37, 11, 12, 95, 0)
s = 26: (0, 25, 68, 12, 17, 56, 48, 30, 7, 6, 112, 0)
s = 27: (0, 24, 55, 11, 32, 51, 64, 27, 9, 9, 148, 0)
s = 28: (0, 27, 56, 9, 26, 45, 67, 27, 8, 7, 106, 0)
s = 29: (0, 21, 36, 9, 13, 34, 59, 32, 11, 7, 121, 0)
s = 30: (0, 20, 65, 14, 27, 32, 48, 20, 9, 8, 177, 0)
s = 31: (0, 41, 41, 13, 23, 56, 69, 28, 9, 8, 78, 0)
s = 32: (0, 30, 56, 12, 14, 25, 59, 47, 9, 12, 141, 0)
s = 33: (0, 21, 90, 10, 26, 38, 75, 41, 13, 8, 117, 0)
s = 34: (0, 46, 106, 11, 29, 28, 72, 29, 7, 12, 112, 0)
s = 35: (0, 26, 69, 10, 20, 51, 69, 42, 7, 12, 80, 0)
s = 36: (0, 31, 62, 7, 17, 30, 115, 39, 10, 7, 116, 0)
s = 37: (0, 26, 76, 16, 34, 34, 44, 27, 6, 6, 137, 0)
s = 38: (0, 17, 62, 9, 13, 49, 75, 43, 5, 9, 97, 0)
s = 39: (0, 23, 45, 10, 15, 58, 61, 35, 14, 7, 165, 0)
s = 40: (0, 27, 42, 12, 15, 42, 65, 49, 7, 10, 177, 0)
s = 41: (0, 23, 34, 6, 29, 42, 71, 34, 14, 9, 164, 0)
s = 42: (0, 30, 72, 6, 37, 53, 42, 49, 7, 10, 166, 0)
s = 43: (0, 39, 59, 8, 25, 48, 73, 35, 8, 7, 161, 0)
s = 44: (0, 21, 46, 10, 22, 34, 48, 49, 8, 15, 166, 0)
s = 45: (0, 20, 66, 14, 31, 32, 43, 29, 6, 8, 110, 0)
s = 46: (0, 28, 52, 17, 17, 28, 48, 26, 10, 7, 103, 0)
s = 47: (0, 25, 35, 7, 14, 46, 62, 34, 7, 12, 105, 0)
s = 48: (0, 27, 46, 10, 18, 52, 58, 25, 6, 12, 90, 0)
s = 49: (0, 30, 35, 10, 26, 32, 107, 37, 7, 14, 154, 0)
s = 50: (0, 21, 102, 6, 16, 60, 53, 29, 9, 14, 165, 0)
s = 51: (0, 28, 53, 11, 19, 44, 37, 31, 15, 7, 114, 0)
s = 52: (0, 35, 73, 10, 31, 49, 59, 23, 11, 9, 120, 0)
s = 53: (0, 28, 40, 10, 19, 32, 63, 22, 9, 8, 203, 0)
s = 54: (0, 48, 63, 8, 16, 46, 56, 23, 10, 9, 102, 0)
s = 55: (0, 21, 70, 11, 26, 53, 67, 37, 7, 9, 123, 0)
s = 56: (0, 27, 41, 14, 20, 32, 54, 43, 6, 11, 148, 0)
s = 57: (0, 16, 65, 11, 28, 54, 56, 21, 10, 11, 92, 0)
s = 58: (0, 16, 63, 14, 20, 45, 66, 49, 14, 8, 85, 0)
s = 59: (0, 32, 53, 8, 13, 59, 63, 43, 8, 10, 116, 0)
s = 60: (0, 24, 63, 6, 27, 49, 45, 20, 8, 10, 151, 0)
s = 61: (0, 44, 51, 10, 21, 42, 56, 36, 10, 8, 104, 0)
s = 62: (0, 22, 57, 13, 23, 35, 35, 29, 8, 8, 132, 0)
s = 63: (0, 37, 52, 8, 28, 47, 94, 31, 8, 8, 117, 0)
s = 64: (0, 32, 88, 14, 26, 57, 70, 27, 12, 7, 137, 0)
s = 65: (0, 40, 112, 12, 16, 25, 71, 24, 11, 7, 145, 0)
s = 66: (0, 21, 49, 7, 22, 23, 62, 18, 10, 12, 143, 0)
s = 67: (0, 22, 56, 8, 28, 42, 52, 36, 7, 7, 112, 0)
s = 68: (0, 38, 59, 8, 19, 35, 74, 36, 8, 8, 217, 0)
s = 69: (0, 17, 69, 11, 26, 57, 87, 30, 10, 8, 118, 0)
s = 70: (0, 25, 72, 10, 24, 66, 129, 38, 8, 11, 84, 0)
s = 71: (0, 40, 100, 9, 23, 23, 58, 33, 13, 6, 103, 0)
s = 72: (0, 25, 70, 9, 31, 37, 47, 51, 7, 10, 98, 0)
s = 73: (0, 17, 65, 15, 20, 63, 65, 26, 7, 11, 73, 0)
s = 74: (0, 46, 80, 10, 22, 38, 66, 31, 6, 5, 136, 0)
s = 75: (0, 37, 68, 7, 25, 51, 89, 26, 8, 8, 84, 0)
s = 76: (0, 34, 60, 11, 16, 64, 71, 43, 9, 8, 138, 0)
s = 77: (0, 28, 52, 8, 22, 46, 54, 31, 11, 11, 112, 0)
s = 78: (0, 23, 80, 11, 15, 24, 59, 32, 5, 11, 86, 0)
s = 79: (0, 23, 75, 14, 17, 23, 74, 20, 11, 7, 154, 0)
s = 80: (0, 42, 47, 12, 27, 34, 70, 27, 11, 6, 74, 0)
s = 81: (0, 25, 85, 12, 34, 30, 74, 18, 12, 8, 107, 0)
s = 82: (0, 19, 42, 11, 24, 39, 80, 36, 6, 10, 122, 0)
s = 83: (0, 21, 50, 8, 38, 52, 56, 42, 6, 15, 133, 0)
s = 84: (0, 19, 58, 6, 26, 39, 39, 21, 9, 13, 114, 0)
s = 85: (0, 33, 65, 12, 20, 47, 72, 20, 8, 9, 96, 0)
s = 86: (0, 18, 49, 12, 14, 36, 83, 20, 10, 8, 130, 0)
s = 87: (0, 42, 78, 7, 15, 61, 71, 20, 8, 8, 100, 0)
s = 88: (0, 29, 47, 7, 21, 54, 72, 31, 10, 10, 126, 0)
s = 89: (0, 18, 51, 18, 30, 32, 65, 39, 9, 10, 117, 0)
s = 90: (0, 26, 57, 6, 21, 27, 67, 23, 13, 13, 134, 0)
s = 91: (0, 32, 72, 15, 19, 33, 88, 27, 14, 6, 133, 0)
s = 92: (0, 34, 83, 13, 17, 42, 54, 31, 7, 11, 126, 0)
s = 93: (0, 34, 40, 16, 17, 45, 43, 24, 15, 9, 176, 0)
s = 94: (0, 27, 62, 14, 21, 44, 59, 18, 7, 9, 120, 0)
s = 95: (0, 18, 66, 12, 22, 57, 78, 43, 7, 8, 135, 0)
s = 96: (0, 44, 64, 9, 23, 32, 76, 41, 10, 8, 117, 0)
s = 97: (0, 32, 52, 8, 30, 56, 66, 19, 9, 10, 92, 0)
s = 98: (0, 31, 78, 7, 16, 55, 73, 28, 6, 12, 149, 0)
s = 99: (0, 36, 62, 7, 17, 71, 90, 19, 5, 10, 119, 0)
s = 100: (0, 29, 82, 7, 19, 41, 91, 18, 6, 14, 116, 0)
s = 101: (0, 19, 53, 9, 28, 57, 98, 32, 9, 7, 112, 0)
s = 102: (0, 20, 81, 10, 16, 57, 44, 29, 11, 9, 98, 0)
s = 103: (0, 26, 52, 12, 26, 31, 82, 36, 11, 11, 110, 0)
s = 104: (0, 36, 105, 7, 23, 44, 115, 30, 6, 6, 132, 0)
s = 105: (0, 22, 56, 6, 26, 36, 54, 43, 7, 9, 99, 0)
s = 106: (0, 17, 82, 14, 25, 49, 83, 30, 6, 9, 142, 0)
s = 107: (0, 22, 96, 12, 35, 33, 46, 29, 7, 6, 94, 0)
s = 108: (0, 31, 79, 12, 24, 45, 61, 21, 10, 8, 87, 0)
s = 109: (0, 21, 56, 9, 24, 33, 74, 31, 7, 10, 132, 0)
s = 110: (0, 42, 105, 8, 21, 33, 75, 39, 7, 6, 115, 0)
s = 111: (0, 29, 55, 7, 24, 39, 73, 25, 7, 9, 112, 0)
s = 112: (0, 29, 44, 7, 17, 31, 82, 31, 9, 9, 155, 0)
s = 113: (0, 44, 44, 8, 30, 25, 60, 30, 8, 7, 131, 0)
s = 114: (0, 33, 59, 9, 19, 29, 63, 20, 9, 8, 148, 0)
s = 115: (0, 28, 96, 13, 26, 37, 100, 36, 6, 6, 192, 0)
s = 116: (0, 29, 48, 8, 18, 64, 92, 37, 9, 9, 141, 0)
s = 117: (0, 33, 41, 10, 32, 36, 95, 20, 10, 16, 124, 0)
s = 118: (0, 33, 73, 12, 18, 26, 49, 43, 14, 9, 145, 0)
s = 119: (0, 35, 96, 8, 42, 28, 44, 28, 9, 13, 151, 0)
s = 120: (0, 25, 80, 6, 24, 35, 68, 26, 5, 7, 100, 0)
s = 121: (0, 48, 74, 10, 24, 50, 83, 32, 10, 8, 102, 0)
s = 122: (0, 19, 78, 10, 23, 22, 77, 28, 9, 6, 77, 0)
s = 123: (0, 28, 77, 9, 24, 28, 61, 20, 11, 11, 105, 0)
s = 124: (0, 29, 76, 8, 23, 46, 81, 38, 7, 10, 193, 0)
s = 125: (0, 17, 56, 11, 24, 32, 41, 25, 7, 9, 163, 0)
s = 126: (0, 31, 40, 6, 16, 50, 40, 45, 10, 8, 132, 0)
s = 127: (0, 33, 48, 8, 33, 43, 61, 30, 7, 10, 175, 0)
s = 128: (0, 42, 91, 10, 17, 46, 42, 20, 12, 8, 143, 0)
s = 129: (0, 39, 66, 7, 14, 33, 57, 17, 10, 7, 168, 0)
s = 130: (0, 27, 67, 13, 19, 56, 61, 33, 10, 13, 137, 0)
s = 131: (0, 23, 44, 7, 34, 67, 77, 29, 8, 7, 71, 0)
s = 132: (0, 35, 50, 9, 29, 21, 40, 20, 8, 12, 181, 0)
s = 133: (0, 36, 71, 8, 20, 47, 44, 32, 9, 6, 78, 0)
s = 134: (0, 26, 113, 7, 13, 34, 61, 41, 8, 8, 148, 0)
s = 135: (0, 18, 76, 11, 22, 41, 63, 23, 5, 12, 111, 0)
s = 136: (0, 34, 42, 8, 20, 44, 86, 40, 5, 12, 94, 0)
s = 137: (0, 50, 65, 18, 22, 45, 56, 37, 7, 10, 114, 0)
s = 138: (0, 20, 44, 12, 17, 39, 85, 32, 6, 10, 128, 0)
s = 139: (0, 31, 63, 12, 19, 38, 58, 27, 8, 11, 85, 0)
s = 140: (0, 20, 54, 9, 17, 40, 82, 49, 7, 10, 103, 0)
s = 141: (0, 20, 60, 16, 28, 45, 76, 41, 8, 6, 143, 0)
s = 142: (0, 15, 46, 10, 21, 31, 85, 29, 9, 8, 105, 0)
s = 143: (0, 40, 67, 9, 19, 38, 55, 50, 8, 11, 92, 0)
s = 144: (0, 20, 73, 11, 24, 30, 58, 29, 6, 8, 84, 0)
s = 145: (0, 27, 44, 17, 24, 52, 61, 33, 8, 8, 120, 0)
s = 146: (0, 28, 38, 12, 25, 50, 46, 19, 9, 12, 156, 0)
s = 147: (0, 26, 65, 7, 15, 34, 58, 28, 11, 8, 159, 0)
s = 148: (0, 33, 57, 18, 32, 27, 101, 35, 8, 13, 79, 0)
s = 149: (0, 39, 102, 12, 29, 42, 64, 16, 8, 6, 164, 0)
s = 150: (0, 32, 63, 8, 22, 23, 65, 28, 9, 12, 92, 0)
s = 151: (0, 29, 63, 12, 12, 25, 48, 29, 12, 10, 125, 0)
s = 152: (0, 25, 95, 17, 19, 38, 47, 18, 7, 10, 149, 0)
s = 153: (0, 16, 69, 7, 26, 27, 62, 20, 8, 10, 135, 0)
s = 154: (0, 33, 58, 11, 17, 43, 60, 30, 6, 12, 152, 0)
s = 155: (0, 26, 72, 8, 30, 40, 34, 28, 6, 7, 134, 0)
s = 156: (0, 19, 66, 12, 34, 31, 103, 30, 15, 9, 105, 0)
s = 157: (0, 23, 55, 12, 18, 37, 83, 20, 8, 13, 85, 0)
s = 158: (0, 49, 46, 11, 22, 43, 57, 27, 7, 12, 128, 0)
s = 159: (0, 33, 58, 8, 19, 29, 44, 45, 7, 9, 181, 0)
s = 160: (0, 36, 64, 9, 26, 26, 97, 25, 8, 9, 106, 0)
s = 161: (0, 33, 57, 13, 34, 53, 63, 21, 12, 13, 140, 0)
s = 162: (0, 36, 65, 15, 25, 23, 87, 27, 10, 9, 87, 0)
s = 163: (0, 29, 69, 18, 18, 31, 81, 42, 6, 10, 150, 0)
s = 164: (0, 43, 54, 10, 29, 38, 87, 37, 7, 10, 234, 0)
s = 165: (0, 30, 57, 6, 30, 44, 37, 32, 7, 12, 109, 0)
s = 166: (0, 30, 55, 10, 19, 24, 89, 28, 9, 7, 93, 0)
s = 167: (0, 30, 46, 11, 17, 65, 91, 36, 11, 7, 125, 0)
s = 168: (0, 31, 74, 10, 39, 46, 80, 17, 8, 7, 128, 0)
s = 169: (0, 28, 70, 10, 20, 66, 87, 24, 6, 8, 100, 0)
s = 170: (0, 25, 57, 10, 14, 49, 79, 21, 9, 11, 147, 0)
s = 171: (0, 31, 63, 7, 27, 59, 72, 33, 10, 8, 99, 0)
s = 172: (0, 18, 106, 11, 24, 31, 80, 29, 13, 10, 99, 0)
s = 173: (0, 27, 64, 11, 27, 47, 82, 17, 10, 8, 226, 0)
s = 174: (0, 31, 48, 10, 30, 58, 104, 34, 7, 10, 149, 0)
s = 175: (0, 42, 60, 6, 29, 37, 68, 18, 12, 7, 102, 0)
s = 176: (0, 42, 68, 10, 43, 33, 105, 29, 6, 7, 162, 0)
s = 177: (0, 18, 75, 14, 30, 35, 52, 27, 8, 9, 101, 0)
s = 178: (0, 30, 62, 6, 15, 40, 63, 37, 7, 9, 116, 0)
s = 179: (0, 32, 53, 12, 17, 30, 92, 48, 6, 8, 87, 0)
s = 180: (0, 32, 55, 12, 16, 35, 47, 23, 9, 9, 185, 0)
s = 181: (0, 24, 71, 17, 24, 37, 70, 32, 8, 10, 99, 0)
s = 182: (0, 28, 58, 14, 28, 46, 42, 22, 6, 7, 152, 0)
s = 183: (0, 30, 66, 11, 19, 36, 50, 19, 9, 7, 94, 0)
s = 184: (0, 21, 42, 8, 18, 41, 58, 27, 8, 14, 138, 0)
s = 185: (0, 21, 85, 10, 23, 34, 65, 22, 5, 8, 171, 0)
s = 186: (0, 25, 72, 13, 20, 34, 49, 30, 9, 7, 159, 0)
s = 187: (0, 27, 49, 8, 17, 47, 47, 27, 7, 8, 87, 0)
s = 188: (0, 30, 69, 9, 25, 26, 72, 52, 8, 9, 101, 0)
s = 189: (0, 18, 39, 10, 20, 24, 51, 19, 5, 13, 161, 0)
s = 190: (0, 37, 71, 14, 31, 37, 74, 19, 9, 14, 161, 0)
s = 191: (0, 45, 75, 15, 16, 22, 91, 33, 7, 9, 112, 0)
s = 192: (0, 44, 41, 10, 18, 28, 60, 50, 8, 6, 74, 0)
s = 193: (0, 24, 95, 8, 15, 41, 81, 21, 12, 8, 126, 0)
s = 194: (0, 24, 104, 7, 31, 48, 73, 42, 14, 6, 167, 0)
s = 195: (0, 28, 75, 7, 21, 27, 50, 23, 7, 13, 148, 0)
s = 196: (0, 25, 46, 14, 14, 34, 54, 25, 6, 6, 102, 0)
s = 197: (0, 31, 59, 9, 24, 60, 49, 29, 8, 10, 109, 0)
s = 198: (0, 23, 63, 10, 15, 23, 71, 25, 14, 10, 157, 0)
s = 199: (0, 37, 58, 10, 24, 57, 49, 38, 12, 9, 148, 0)
s = 200: (0, 24, 57, 7, 23, 27, 84, 45, 5, 9, 164, 0)
************************************************************************
ES/LS-VALUES:
jobnr.   ES(i)    LS(i)
------------------------------------------------------------------------
  0        0        0
  1        0       35
  2        0       37
  3        0       70
  4        3       57
  5        3       39
  6        8       45
  7       19       57
  8        3       72
  9        8       72
 10       22       61
 11       35       74
************************************************************************
BIG-M-VALUES:
M1 = 24, M2 = 234
************************************************************************
